data/mip_solutions/furman_sahinidis/transportation/37sp-yfyv_gurobi.sol
Elapsed time: 20.3956830502
Nodes explored: 9451
Upper bound: 36.0000081251
Lower bound: 35.0
y[0,0]=1
y[0,2]=1
y[0,6]=1
y[1,8]=1
y[1,11]=1
y[1,14]=1
y[1,16]=1
y[2,0]=1
y[2,5]=1
y[2,7]=1
y[3,13]=1
y[4,13]=1
y[4,16]=1
y[5,0]=1
y[5,6]=1
y[5,9]=1
y[6,0]=1
y[7,0]=1
y[8,16]=1
y[9,16]=1
y[10,16]=1
y[11,0]=1
y[12,16]=1
y[13,16]=1
y[14,16]=1
y[15,10]=1
y[15,14]=1
y[16,16]=1
y[17,13]=1
y[18,16]=1
y[19,16]=1
y[20,0]=1
y[20,1]=1
y[20,3]=1
y[20,4]=1
y[20,12]=1
y[20,15]=1
y[20,16]=1
q[0,5,0,20]=24615.0
q[0,6,0,9]=818.88
q[0,6,0,15]=1906.228
q[0,6,0,25]=3195.892
q[0,6,2,10]=3201.0
q[0,6,6,26]=724.0
q[0,7,0,7]=5271.7
q[0,7,0,10]=9846.0
q[0,7,0,12]=11145.492
q[0,7,0,23]=4298.3
q[0,7,0,25]=8057.508
q[0,7,0,27]=764.999999998
q[0,8,0,9]=38565.12
q[0,8,0,13]=10664.88
q[1,7,8,29]=4.5656634029e-10
q[1,7,14,18]=6136.0
q[1,8,8,29]=325.0
q[1,8,14,16]=612.3
q[1,8,14,17]=3750.0
q[1,8,14,20]=1334.99999915
q[1,8,14,21]=9253.70000169
q[1,8,16,31]=63.9999991544
q[1,9,14,16]=-4.79884165384e-10
q[1,9,14,18]=6136.0
q[1,10,14,18]=1534.0
q[1,11,14,16]=17950.2
q[1,11,14,18]=1454.9
q[1,12,14,16]=-2.47382558882e-10
q[1,12,14,18]=2070.9
q[1,13,14,18]=2301.0
q[1,14,14,18]=460.2
q[1,15,14,18]=767.0
q[1,16,14,19]=4986.0
q[1,16,14,20]=8359.8
q[1,17,14,18]=1534.0
q[1,18,11,18]=4666.0
q[1,18,14,18]=7606.0
q[1,19,8,29]=-4.85009020203e-10
q[1,19,14,19]=3451.5
q[1,20,14,20]=1917.5
q[2,2,0,6]=9846.0
q[2,2,0,7]=34112.3
q[2,2,0,8]=15536.9
q[2,2,0,14]=2953.80000001
q[2,2,5,14]=466.8
q[2,2,5,15]=778.0
q[2,2,5,16]=13537.2
q[2,2,5,17]=1556.0
q[2,2,7,9]=193.0
q[2,3,0,8]=60693.6
q[2,3,0,11]=17508.4
q[2,3,5,13]=778.0
q[2,4,0,11]=78980.0
q[2,4,0,14]=-7.90136093185e-09
q[3,8,13,11]=27907.0
q[3,8,13,12]=17523.0
q[3,8,13,13]=-2.4349656608e-09
q[3,8,13,14]=3894.0
q[3,8,13,15]=-1.22236087918e-09
q[3,8,13,16]=78716.0
q[3,9,13,13]=19470.0
q[3,9,13,18]=12540.0
q[4,13,5,13]=1.52795109898e-10
q[4,13,5,15]=-1.48964672185e-10
q[4,13,13,16]=32728.8
q[4,13,13,17]=12980.0
q[4,13,13,18]=70587.4
q[4,13,13,19]=4954.8
q[4,14,13,19]=24250.2
q[4,15,13,15]=6490.0
q[4,15,16,31]=33927.0
q[4,16,13,18]=20712.6
q[4,16,16,31]=682543.2
q[4,17,13,20]=48675.0
q[4,17,16,31]=32159.0
q[4,18,16,31]=646672.0
q[4,19,16,31]=181876.5
q[4,20,16,31]=303127.5
q[4,21,16,31]=214210.1
q[4,22,16,31]=32333.6
q[4,23,16,31]=157626.3
q[5,6,0,7]=-2.32501606501e-10
q[5,6,9,17]=1590.0
q[5,7,0,8]=6329.5
q[5,7,9,17]=30.4999999998
q[5,8,0,8]=15900.0
q[5,9,0,11]=6360.0
q[5,10,0,11]=1590.0
q[5,11,0,11]=20113.5
q[5,11,0,14]=-1.97906047106e-09
q[5,12,0,12]=2146.5
q[5,13,0,13]=2385.0
q[5,13,0,14]=-2.47382558882e-10
q[5,14,0,18]=477.0
q[5,14,0,23]=-4.69646873396e-11
q[5,15,0,15]=795.0
q[5,15,0,16]=-1.0881032706e-10
q[5,16,0,16]=7255.79999999
q[5,16,0,17]=6577.20000001
q[5,17,0,18]=1590.0
q[5,18,0,25]=12720.0
q[5,19,0,19]=3084.3
q[5,19,0,23]=493.2
q[5,20,0,21]=4950.5
q[5,20,0,22]=1012.0
q[5,21,0,27]=4213.5
q[5,22,0,22]=636.0
q[5,22,0,23]=-6.18456397206e-11
q[5,23,0,23]=3100.5
q[5,23,6,26]=-4.79884165384e-10
q[6,15,0,15]=2216.0
q[6,16,0,16]=38558.4
q[6,16,0,17]=-3.94472686575e-09
q[6,17,0,18]=1970.5
q[6,17,0,26]=2461.5
q[6,18,0,18]=35456.0
q[6,18,0,19]=-3.95812094212e-09
q[6,19,0,21]=9972.0
q[6,20,0,20]=12307.5
q[6,20,0,21]=3663.89999916
q[6,20,0,23]=648.600000838
q[6,21,0,21]=171.100000847
q[6,21,0,24]=11573.6999992
q[6,22,0,24]=1772.8
q[6,23,0,24]=8642.4
q[7,16,0,16]=39846.0
q[7,16,0,17]=-3.94836484455e-09
q[7,17,0,25]=4580.0
q[7,18,0,18]=30106.5
q[7,18,0,23]=6533.5
q[7,19,0,19]=10305.0
q[7,20,0,23]=-1.97906047106e-09
q[7,20,0,27]=17175.0
q[7,21,0,24]=12137.0
q[7,21,0,25]=-9.89530235529e-10
q[7,22,0,22]=1832.0
q[7,23,0,24]=8931.0
q[8,15,0,15]=7.91624188423e-09
q[8,15,16,31]=1983.99999999
q[8,16,16,31]=34521.6
q[8,17,16,31]=3968.0
q[8,18,0,20]=-3.94836484455e-09
q[8,18,16,31]=31744.0
q[8,19,0,20]=-9.89530235529e-10
q[8,19,16,31]=8928.0
q[8,20,0,22]=-1.97906047106e-09
q[8,20,16,31]=14880.0
q[8,21,0,22]=-9.89530235529e-10
q[8,21,16,31]=10515.2
q[8,22,16,31]=1587.2
q[8,23,16,31]=7737.6
q[9,24,16,31]=5998.4
q[9,25,16,31]=3781.6
q[10,26,16,31]=346.0
q[10,27,16,31]=3114.0
q[10,28,16,31]=3806.0
q[10,29,16,31]=1453.2
q[10,30,16,31]=484.4
q[10,31,16,31]=1176.4
q[11,12,0,12]=-2.41264440128e-10
q[11,12,0,23]=1547.1
q[11,13,0,13]=1719.0
q[11,14,0,14]=-3.09228198603e-11
q[11,14,0,17]=343.8
q[11,15,0,17]=573.0
q[11,16,0,17]=1206.0
q[11,16,0,19]=8764.2
q[11,17,0,17]=1146.0
q[11,17,0,19]=-1.23691279441e-10
q[11,18,0,18]=9168.0
q[11,19,0,23]=2578.5
q[11,20,0,21]=4297.5
q[11,21,0,21]=3036.9
q[11,22,0,22]=458.4
q[11,22,0,24]=-6.18456397206e-11
q[11,23,0,23]=-2.47382558882e-10
q[11,23,0,24]=2234.7
q[12,17,16,31]=1680.0
q[12,18,16,31]=13440.0
q[12,19,16,31]=3780.0
q[12,20,0,21]=-9.79774137968e-10
q[12,20,16,31]=6300.0
q[12,21,16,31]=4452.0
q[12,22,16,31]=672.0
q[12,23,0,23]=9.89530235529e-10
q[12,23,16,31]=3276.0
q[13,24,16,31]=3118.8
q[13,25,16,31]=1966.2
q[14,26,16,31]=776.5
q[14,27,16,31]=6988.5
q[14,28,16,31]=8541.5
q[14,29,16,31]=3261.3
q[14,30,16,31]=1087.1
q[14,31,16,31]=6677.9
q[15,20,10,28]=234.799999154
q[15,20,14,20]=2450.20000085
q[15,21,0,24]=8.45638294071e-07
q[15,21,14,21]=683.799998309
q[15,21,14,22]=1213.6
q[15,21,16,31]=8.45638294071e-07
q[15,22,14,22]=286.4
q[15,23,0,23]=-8.45638294071e-07
q[15,23,10,28]=1396.20000085
q[16,31,16,31]=21282.3
q[17,14,13,16]=317.4
q[17,15,13,16]=529.0
q[17,16,13,16]=634.8
q[18,25,16,31]=14718.0
q[19,22,16,31]=4245.6
q[19,23,16,31]=20697.3
q[20,1,0,12]=0.107999999933
q[20,1,0,13]=0.119999999958
q[20,1,0,15]=5.77199999638
q[20,1,1,3]=7898.0
q[20,1,3,3]=6833.5
q[20,1,4,1]=67368.0
q[20,1,4,2]=8020.0
q[20,1,4,3]=8020.0
q[20,1,12,1]=100800.0
q[20,1,12,2]=31500.0
q[20,1,15,1]=1549766.0
q[20,1,15,2]=63515.0
q[20,1,15,3]=63515.0
q[20,1,15,4]=63515.0
q[20,1,15,5]=63515.0
q[20,1,15,6]=25406.0
q[20,1,15,7]=101624.0
q[20,1,15,8]=254060.0
q[20,1,16,31]=14633358.5
